zaligvinder/models/SRE/data154/7961.txt
(((@.(j-0.a-1.i-2|h-3)|(@.(h-4.j-5.h-6)*)*.i-7))*)*.d-8.e-9.(i-10.d-11.(@|(j-12|@.(g-13|e-14))).(i-15|b-16).d-17.(d-18.a-19.(h-20|b-21).e-22|c-23.f-24.a-25).(@.(@|@.(c-26|j-27)).(c-28.g-29)*)*.a-30.a-31.((g-32.j-33.g-34.j-35.h-36)*)*.d-37.g-38.j-39.f-40.g-41.((@.(c-42|f-43).h-44)*)*|(f-45.h-46.d-47|(@|(@|((a-48|f-49))*.c-50)).((@|(g-51|i-52))|(b-53|j-54)))).(b-55.a-56.(@|h-57.a-58)|j-59.(a-60.c-61)*.(c-62|@.(e-63|d-64)).(d-65|(@|(c-66|e-67).(i-68|(@|e-69.f-70.j-71)))).(h-72.a-73.(g-74.h-75|g-76.a-77).b-78.g-79.h-80.b-81)*).((i-82.(e-83|i-84).(e-85|@.(@.(j-86.(@|@.(d-87|a-88)).c-89)*|h-90)).j-91|(@|i-92.a-93).(e-94|i-95).(@|@.(f-96|i-97)).h-98.(@|(h-99.c-100.e-101)*).a-102)|f-103.((h-104.b-105.g-106|d-107.(a-108.h-109)*.g-110)|h-111).((h-112.f-113)*.((@.(h-114|d-115).(h-116.b-117|(@.(@|c-118.g-119))*))*|g-120)|b-121.((@|i-122.b-123)|(@|@.((((h-124|i-125))*)*)*.i-126))).(@|(@|@.(d-127|c-128))).b-129.j-130.(@.(g-131.i-132|c-133))*.a-134.(e-135|h-136).a-137.h-138.d-139.a-140.a-141.(e-142|f-143.a-144).((a-145|b-146.e-147).(e-148|c-149.g-150).(j-151|(@.(@|((@|g-152.h-153))*).g-154.a-155.i-156.i-157.b-158.j-159.h-160)*).(g-161.(@|i-162.f-163)|b-164.h-165.j-166)|(i-167|d-168).b-169)).(c-170|j-171).f-172.d-173.d-174.g-175.a-176.j-177.((((b-178.h-179|(b-180.(e-181.b-182|@.(b-183|(h-184.a-185)*)).j-186.(@|b-187.i-188.i-189).f-190.h-191.g-192.j-193)*.(@.(e-194.(@|(d-195|(i-196|i-197)).(@|d-198.j-199.c-200).e-201.j-202)|(@.(@|j-203.b-204))*.(i-205|c-206)))*).((c-207|g-208.(g-209.i-210|d-211.(@|f-212.g-213))).((i-214.g-215.g-216.(d-217|(((h-218.c-219.i-220.j-221)*|b-222))*))*|((@|(((i-223|(a-224|j-225.g-226).b-227.h-228))*)*))*).g-229.((f-230.f-231.b-232.c-233)*|f-234).((h-235.j-236)*|d-237).e-238.(@|(j-239|f-240)).f-241.(f-242|j-243).(@.(d-244|e-245)|@.(@|(b-246|c-247)).e-248)|i-249.(h-250.(e-251.i-252.i-253|a-254.d-255.(c-256.d-257)*).(@|(d-258|b-259))|d-260.(@|(@|(f-261|i-262).g-263)).c-264.(b-265|j-266).(@|g-267.f-268)).(@|(@.((@|(e-269|c-270)))*)*).(@|((b-271|(j-272|d-273.(@|f-274.d-275).h-276))|e-277.j-278.((e-279.d-280)*)*.a-281).(a-282.b-283)*).h-284.(f-285|c-286))|(((@.(j-287|g-288).b-289.e-290.e-291.b-292.(j-293.e-294)*.(@.(@.(b-295|f-296).b-297)*)*|((((@|c-298.a-299))*|@.(@|(i-300|j-301.a-302)))|f-303.d-304))|((@.(e-305|f-306).g-307.d-308|d-309).(@|(@|(d-310|j-311.(d-312|d-313)))).(h-314|e-315).d-316.((a-317.j-318.j-319.(d-320|j-321).i-322.i-323.e-324.(h-325.f-326|d-327).(b-328|@.(d-329|f-330))|(@.(@|(i-331|f-332))|e-333)))*)*).f-334.((@|@.(@|(@.(f-335|b-336))*)))*.(@.((@|(@.(@|i-337.d-338)|e-339).j-340)|@.(d-341|a-342.(@|(@.(f-343|f-344))*))))*|(c-345.((i-346|(((@.(@|(@|(@|((g-347|d-348))*))))*|h-349).b-350.(@|g-351.e-352))*))*.(@.(f-353.c-354)*|c-355)|(f-356.h-357.d-358.(i-359.i-360|i-361).g-362.i-363|((((f-364|f-365).f-366)*)*)*.(i-367|d-368)))))|(@.(f-369.a-370|c-371.j-372)|(i-373.(@.(@|@.(f-374.a-375)*))*.j-376.c-377.d-378)*).(@|b-379.a-380).(@|(d-381|e-382)).j-383.((@.(d-384|c-385).i-386.g-387|(c-388|(((@|@.(i-389|(b-390.h-391)*)))*.j-392.a-393.(@|@.(@|c-394.f-395))|@.(f-396|a-397.(e-398|i-399))))).((h-400|j-401)|((@|(@|(((f-402|f-403.f-404)|(@.(@.(b-405.i-406|b-407))*|c-408)).(@|@.(@|(i-409|f-410)))|d-411))))*))*.(f-412|c-413.b-414.(@|(@.(f-415|g-416))*).c-417).(b-418|((j-419|c-420)|(i-421.i-422.b-423|(f-424|b-425).(((@|@.(h-426|g-427))|(i-428|d-429)))*))).(h-430.e-431|g-432.g-433).((((((c-434|i-435)|(e-436.j-437.h-438)*))*|g-439.d-440)|@.(h-441|i-442).(@|g-443.(@|(h-444|b-445))))|(h-446|e-447))).(e-448.a-449.((@.(i-450|c-451)|b-452.g-453.d-454.f-455))*.g-456.e-457.(d-458.h-459.f-460)*.g-461.i-462.b-463.((f-464.j-465|c-466.(@|((c-467|g-468))*))|i-469.d-470).d-471.((j-472|g-473)|@.(c-474.d-475)*.g-476).(g-477.c-478|b-479.a-480).j-481.(@.((f-482|a-483)|e-484).g-485.h-486.(d-487.(((g-488|h-489)|a-490).g-491|g-492).(j-493|b-494).h-495.g-496.i-497.h-498)*.h-499.(@|j-500.b-501.e-502)|((f-503|j-504.e-505.d-506).(@|(@|b-507.a-508.e-509))|f-510.j-511.c-512.e-513).(f-514|i-515).c-516.a-517.((h-518|c-519).g-520)*.c-521.d-522.b-523).((i-524|d-525.(h-526|j-527).j-528.d-529.e-530).b-531.((b-532|((j-533|(@|e-534.e-535))|(@|d-536.h-537).j-538))|g-539).f-540.((j-541|e-542).g-543|b-544.f-545).g-546.h-547.(((((i-548|(e-549|h-550.(@|e-551.h-552.a-553.c-554)))|a-555.g-556.c-557.(@|((a-558.g-559|e-560)|h-561)))|((d-562.f-563.((f-564|(@|(@|c-565.h-566))).g-567.(@|f-568.(@|(b-569|d-570)).h-571).(@|(c-572|h-573))|i-574.g-575).(@|((((@|b-576.d-577.j-578))*)*)*).d-579)*.((f-580|c-581)|g-582).g-583)*)|(@|i-584.e-585).(((@|(d-586.d-587.(@.(((f-588.b-589)*|b-590)|h-591)|c-592.(h-593.d-594)*))*)|(e-595.d-596|h-597).(((a-598|(((@|@.(a-599.j-600)*))*|g-601.(g-602|i-603))))*|b-604).f-605.(@|(f-606.f-607|a-608)).h-609))*.i-610.i-611.b-612.b-613.((@.(i-614|a-615)|(h-616|c-617).j-618.f-619.f-620)|((@|((@|(h-621|c-622.e-623))|(j-624|@.(@|@.(@|@.(f-625|a-626)))))))*).(e-627|(@|(b-628|f-629))).a-630.g-631.b-632.j-633.(@|@.(@|(@|f-634.c-635))).(@|(f-636|a-637)).(@|a-638.h-639).(f-640.d-641)*))*.(c-642|((@|d-643.b-644.h-645).(c-646|g-647)|@.(j-648.b-649|((h-650|a-651)|c-652).e-653).g-654.(@|(@.(@|((a-655|e-656))*))*)).a-657).(a-658|@.((@|i-659.a-660))*.((a-661|d-662).c-663.(e-664.f-665)*.(@|((@|(e-666.h-667)*))*)|((@.(g-668|f-669))*|a-670))).j-671.f-672.f-673.(d-674|c-675).((j-676.f-677.(e-678.i-679|f-680).a-681.(j-682.(@|(g-683|f-684)).((a-685|e-686))*.(@|h-687.a-688.(i-689|f-690)))*|@.(c-691|h-692).h-693))*|(@.(j-694.c-695)*.h-696.(i-697.g-698.a-699.j-700)*)*.j-701.b-702.(a-703|(b-704.i-705|h-706).(h-707|h-708)).((f-709|j-710.i-711).f-712.((d-713.(d-714|b-715).(((@|(@|(@|d-716.g-717))))*)*.g-718.d-719|b-720.e-721.c-722))*.(@.(a-723.j-724|h-725).i-726|(h-727.(j-728|b-729)|(i-730|j-731.b-732).g-733.f-734.c-735).d-736))*.((((c-737.c-738.j-739|((c-740|h-741.a-742.(a-743.(c-744.i-745)*)*.e-746.d-747.g-748.(((@|(@|@.(e-749|c-750))))*)*))*)|(@.(@.((g-751|g-752).j-753)*|((@|(h-754|i-755.h-756)))*))*).h-757)*|(f-758|(@|(h-759|d-760))))))*.((@|@.(a-761.i-762)*)|(@|(@|@.(a-763|d-764.i-765))).g-766.i-767.h-768)|(@.((b-769|(@|j-770.b-771))|((i-772|j-773.a-774.(@|(f-775|(@|@.(c-776.b-777|i-778)))).(@|d-779.i-780).i-781).((@|((d-782.(@|g-783.i-784))*)*).(j-785|c-786).(@.(g-787|j-788))*)*)*).(@|@.((@|(h-789.h-790)*)|g-791).(@|d-792.j-793)))*)
((h-0|h-1.b-2).j-3.g-4.(@|c-5.a-6).e-7.i-8.a-9.f-10.(@|(h-11.g-12|j-13.(c-14|j-15))).j-16.((@|(d-17|i-18))|e-19)|@.(((f-20|(@|@.(@|c-21.h-22)))|b-23)|i-24).c-25.d-26.j-27.f-28.f-29).((((j-30.h-31.b-32.(a-33|a-34).d-35)*.g-36.(((d-37.d-38)*)*|g-39.i-40).f-41.(@.(@|(@|a-42.a-43)).a-44|@.(i-45|c-46)).g-47.d-48.b-49|@.(h-50|e-51)))*|j-52).(((((j-53.i-54.h-55.(@|a-56.j-57))*|@.((@.(@|(@|@.(h-58|c-59))))*|j-60).j-61).(b-62|(h-63.a-64|f-65))|h-66).g-67.i-68|((@|e-69.(d-70|j-71))|(i-72.j-73)*.(@|(j-74.g-75|h-76)).b-77.j-78.(j-79|(@.(j-80|d-81.i-82).b-83)*).h-84.g-85.j-86.c-87.((((d-88|(c-89|(g-90.h-91|b-92.j-93)).f-94)|c-95))*)*.d-96.(((@|((d-97.c-98|i-99)|i-100))|a-101).a-102.j-103|c-104.(i-105|(@|(e-106|b-107)).(a-108|d-109)).d-110)))|@.((@|j-111.i-112.d-113).(d-114.j-115|g-116).a-117|f-118.(i-119.h-120|(@.((@.(@|(f-121|(g-122.f-123)*)))*.j-124)*)*).i-125.i-126.f-127).c-128.(((@.(@|@.((f-129|g-130))*))*|e-131.(@|j-132.j-133))|d-134.b-135).(h-136.(@.(i-137.(@.(@.((((@|(b-138|g-139)))*)*)*)*)*)*|(f-140.g-141)*).(d-142|e-143.i-144.b-145)|c-146.f-147.e-148.f-149.i-150).i-151.b-152.(@|(f-153|@.(a-154.j-155)*.i-156)).((@.(@|b-157.e-158))*|((((f-159|(h-160|@.(@|c-161.f-162))))*.g-163)*|h-164)).(@|f-165.a-166).d-167.(c-168|j-169).e-170.(i-171.b-172.i-173.d-174)*.j-175.i-176.((@|(@|@.(@|(@|j-177.j-178))))|f-179).(@.(j-180|a-181.(f-182|j-183)))*).(c-184.(((@|@.((g-185|f-186)|(c-187.i-188|i-189))))*.(@|@.(@|(e-190|g-191)).i-192.(@|(i-193.d-194)*)))*.(h-195.c-196|b-197.(@|e-198.h-199)).(@.(@|e-200.g-201))*.h-202.f-203.g-204.(@|(@|(f-205.a-206.c-207)*))|(@.(@|(@|f-208.f-209))|@.(g-210|d-211))).(((b-212.(j-213|i-214.e-215.b-216.(b-217|(c-218|@.(@|f-219.j-220))).(c-221|b-222)))*|a-223.((@|(e-224|g-225))|@.(@|@.((@.(j-226|d-227)|h-228))*))).((@|(@|(g-229|j-230)).i-231).c-232)*.(i-233|i-234.c-235).(f-236|j-237))*.i-238.f-239.(@|(@.((i-240|e-241))*)*).g-242.((@|((@|(@|e-243.d-244)))*))*.(@|(@|(@|(@|(@|(a-245|(@|@.(@|g-246.h-247)))))))).(j-248.i-249)*.(@|(@|f-250.b-251)).((@.(f-252|h-253)|@.(d-254|(b-255|a-256))).(@.((g-257|f-258))*.b-259)*.(c-260|(@|@.(@|(f-261.g-262)*).c-263).c-264.e-265.(g-266|e-267).a-268).a-269.d-270.(c-271.a-272.(@|@.(@|j-273.b-274))|i-275.(@|(@|b-276.g-277)).(@|(@|i-278.g-279))).e-280.a-281.(g-282|i-283.a-284).(((h-285|(@.(j-286|b-287.j-288))*)|g-289.a-290)|d-291).((((@|@.(@|e-292.e-293).e-294)|(@.((@|@.((d-295|j-296))*))*.b-297|e-298).(@|(@|(@|h-299.f-300))).a-301.h-302.(a-303.i-304|h-305).g-306.(j-307.c-308|b-309).f-310.e-311.(((b-312.(f-313.b-314)*.b-315.b-316|i-317)|((@|(@|b-318.h-319))|@.(@|j-320.(@|j-321.c-322)).g-323)))*)|(b-324|h-325))|(c-326|f-327.(@|d-328.e-329)).(b-330.b-331|(@|f-332.a-333))).(((@|h-334.h-335).j-336|(c-337|(b-338.g-339|(@|((@|g-340.e-341.e-342).b-343)*)))).((f-344|j-345))*.h-346.e-347.c-348|e-349).(((d-350|@.(@|g-351.b-352).g-353.e-354.h-355)|(e-356|(e-357.e-358.g-359.(e-360.c-361)*.c-362.h-363|((e-364|g-365)|g-366.(c-367|c-368)).g-369).((j-370|(c-371|f-372)))*)))*)*.e-373.((c-374.e-375|@.(g-376|a-377.c-378)).(c-379.e-380.a-381.(j-382|g-383)|f-384.i-385).g-386.(d-387|(((@.(@|@.(c-388.f-389)*))*)*.g-390)*).(@.((@|j-391.j-392)|c-393).((e-394|c-395)|g-396).(((g-397.e-398.g-399.(f-400|(h-401.f-402)*).f-403)*)*.(@|(@|(g-404|c-405)))|((d-406|(a-407.a-408.f-409.(j-410.g-411)*)*))*).((@|a-412.b-413.g-414.((@|(c-415|g-416)))*)|(@|(@.(@|d-417.g-418)|b-419))))*.a-420.d-421.(@|h-422.b-423).((@|@.(e-424|a-425).e-426.j-427.c-428.b-429).f-430.c-431.((g-432.h-433)*|d-434.g-435.g-436).b-437.a-438)*.(((i-439|(d-440.i-441.e-442)*)|e-443.(e-444.g-445|a-446)))*.i-447.((i-448|a-449)|@.(@|(@|(@|a-450.i-451))).(f-452.g-453)*.(@|(b-454|b-455)).(h-456.g-457)*.(@|(b-458|b-459))).((b-460.g-461|h-462).(@|f-463.c-464).((@|(i-465|@.(((@|(f-466|b-467))|f-468)|h-469))))*.j-470.(@|(@.(b-471|i-472)|h-473))|((@.(c-474|h-475.b-476).c-477|(d-478.f-479.((@|(@|(@|j-480.e-481)))|f-482.j-483).(f-484.h-485|(@|(f-486.b-487)*))|a-488.(h-489|d-490).f-491.c-492.j-493))|((h-494|(@|@.(e-495.((@|@.(@|f-496.g-497))|a-498)|b-499))).f-500.h-501.(j-502|(@|e-503.(@|a-504.g-505))))*).(@.(@|e-506.d-507))*)|(h-508.c-509.i-510|@.(@.(@|h-511.i-512))*).(@|c-513.i-514.a-515).(@.(j-516|f-517).g-518)*.c-519.h-520.a-521.(@.(@|j-522.f-523))*.((((@|j-524.a-525))*|(@|(@|@.(@|((@|(b-526|f-527).(f-528|b-529.a-530))|f-531.e-532.c-533)))))|@.(@|d-534.g-535)).((c-536.(c-537.i-538)*.a-539.(@.((@.(f-540.e-541|h-542))*|g-543)|e-544).(@|(f-545|j-546))|h-547.(h-548.d-549)*).h-550|(@|f-551.(@|c-552.h-553).j-554.h-555.b-556.e-557.i-558.(f-559.h-560)*.f-561.(@|c-562.g-563))).(c-564.(d-565.g-566.c-567.h-568)*.((@|(e-569|f-570.(e-571|j-572)))|f-573)|g-574).(e-575.f-576.c-577.(@.(e-578|i-579).(g-580.a-581|b-582)|((j-583|e-584)|c-585)).(d-586|i-587)|@.(d-588|g-589.(@.(@|(g-590|h-591)).(g-592|g-593).j-594)*.(@|j-595.d-596.b-597.a-598.d-599.((f-600|h-601))*).a-602.(@|@.(@|(d-603|e-604)).j-605).f-606.j-607)))
